c User generated cnf file
p cnf 13 16
3 -6 2 0 
3 -9 13 0 
3 -11 9 0 
1 3 -2 0 
-5 2 3 0 
10 -10 12 0 
4 -1 5 0 
1 -8 8 0 
8 -9 9 0 
9 -2 9 0 
-8 7 2 0 
1 9 -6 0 
3 7 -2 0 
7 5 -1 0 
5 9 -9 0 
-8 5 10 0 
